p wcnf 136 272 273 
1 104 84 0 
1 42 28 0 
1 -2 23 0 
1 -53 94 0 
1 -134 -38 0 
1 116 -112 0 
1 -5 -22 0 
1 -99 39 0 
1 20 -111 0 
1 -32 -80 0 
1 91 -66 0 
1 -58 -122 0 
1 -26 -3 0 
1 106 -84 0 
1 -131 -3 0 
1 -69 103 0 
1 116 -115 0 
1 45 56 0 
1 -90 3 0 
1 89 16 0 
1 38 -104 0 
1 109 87 0 
1 53 -81 0 
1 133 -16 0 
1 -115 2 0 
1 -115 -46 0 
1 -21 -12 0 
1 -96 -92 0 
1 113 9 0 
1 89 47 0 
1 -4 -75 0 
1 -52 76 0 
1 -25 -4 0 
1 119 50 0 
1 45 72 0 
1 -95 -5 0 
1 132 129 0 
1 -82 -109 0 
1 -14 -133 0 
1 129 68 0 
1 115 -97 0 
1 -110 33 0 
1 -125 51 0 
1 -129 -118 0 
1 63 -64 0 
1 98 29 0 
1 -19 -33 0 
1 72 82 0 
1 71 89 0 
1 55 -84 0 
1 -76 -56 0 
1 -120 41 0 
1 40 90 0 
1 108 109 0 
1 130 125 0 
1 -21 -80 0 
1 111 -63 0 
1 -77 14 0 
1 -85 42 0 
1 -123 -101 0 
1 123 69 0 
1 61 -85 0 
1 -106 -99 0 
1 63 -60 0 
1 -26 115 0 
1 76 55 0 
1 26 121 0 
1 -6 -130 0 
1 -46 2 0 
1 -102 -2 0 
1 -124 125 0 
1 -85 63 0 
1 -17 110 0 
1 -83 -22 0 
1 -19 102 0 
1 -15 29 0 
1 11 -105 0 
1 -39 -33 0 
1 -127 90 0 
1 -78 -69 0 
1 117 87 0 
1 82 -106 0 
1 121 -51 0 
1 -108 125 0 
1 127 73 0 
1 -135 96 0 
1 108 88 0 
1 -61 3 0 
1 72 -31 0 
1 -19 31 0 
1 96 66 0 
1 -125 1 0 
1 122 97 0 
1 106 -130 0 
1 7 -76 0 
1 -56 13 0 
1 4 2 0 
1 23 -50 0 
1 33 -87 0 
1 66 1 0 
1 70 26 0 
1 103 -57 0 
1 71 -14 0 
1 97 -17 0 
1 -99 134 0 
1 42 -67 0 
1 -62 25 0 
1 -98 -107 0 
1 2 130 0 
1 75 -116 0 
1 -25 -50 0 
1 -121 133 0 
1 -21 -133 0 
1 -133 -96 0 
1 115 -86 0 
1 87 -80 0 
1 -134 31 0 
1 -52 -92 0 
1 9 64 0 
1 -46 113 0 
1 -73 99 0 
1 112 -85 0 
1 67 90 0 
1 -61 36 0 
1 35 5 0 
1 -88 -130 0 
1 -92 -101 0 
1 -84 117 0 
1 -65 -129 0 
1 -60 38 0 
1 44 -98 0 
1 99 25 0 
1 29 -47 0 
1 -69 75 0 
1 -113 -4 0 
1 85 -49 0 
1 -103 82 0 
1 -103 -78 0 
1 28 23 0 
1 -39 74 0 
1 81 -90 0 
1 49 -34 0 
1 -20 58 0 
1 4 78 0 
1 61 7 0 
1 82 24 0 
1 96 27 0 
1 136 1 0 
1 125 -85 0 
1 -58 -27 0 
1 -35 93 0 
1 -107 25 0 
1 -130 -8 0 
1 -125 59 0 
1 -63 -82 0 
1 24 -136 0 
1 66 117 0 
1 85 1 0 
1 35 112 0 
1 71 4 0 
1 -108 33 0 
1 63 -51 0 
1 -133 80 0 
1 92 -56 0 
1 -82 -86 0 
1 -59 62 0 
1 -94 83 0 
1 -107 97 0 
1 64 76 0 
1 12 -136 0 
1 -103 111 0 
1 -6 -69 0 
1 -102 79 0 
1 -135 -58 0 
1 -3 -58 0 
1 -50 -82 0 
1 64 -90 0 
1 103 20 0 
1 -127 106 0 
1 -31 61 0 
1 68 92 0 
1 -111 122 0 
1 63 -7 0 
1 -92 -4 0 
1 14 91 0 
1 -67 110 0 
1 -23 -33 0 
1 113 -94 0 
1 116 -63 0 
1 -82 57 0 
1 -72 -131 0 
1 4 -129 0 
1 -71 -130 0 
1 9 85 0 
1 -132 87 0 
1 -103 -40 0 
1 49 80 0 
1 119 -79 0 
1 59 66 0 
1 127 32 0 
1 -110 54 0 
1 -121 -42 0 
1 -90 -20 0 
1 49 -32 0 
1 76 -56 0 
1 58 92 0 
1 72 -55 0 
1 -36 80 0 
1 111 -109 0 
1 135 -67 0 
1 117 -88 0 
1 -62 95 0 
1 50 59 0 
1 81 -53 0 
1 -109 -56 0 
1 26 127 0 
1 -113 -9 0 
1 129 7 0 
1 47 73 0 
1 -125 100 0 
1 -110 -6 0 
1 126 -73 0 
1 90 -121 0 
1 -94 -8 0 
1 129 41 0 
1 -117 97 0 
1 83 -44 0 
1 -11 46 0 
1 -68 38 0 
1 -94 -55 0 
1 39 -71 0 
1 -71 44 0 
1 60 -38 0 
1 -93 -52 0 
1 94 -133 0 
1 102 44 0 
1 -124 22 0 
1 -2 47 0 
1 14 -17 0 
1 116 -45 0 
1 105 94 0 
1 -38 -94 0 
1 -92 56 0 
1 -90 -55 0 
1 -76 -105 0 
1 45 -122 0 
1 89 -94 0 
1 -119 -20 0 
1 -38 18 0 
1 -2 -103 0 
1 117 -82 0 
1 -92 84 0 
1 125 -84 0 
1 -124 -28 0 
1 -58 14 0 
1 -22 -49 0 
1 -10 27 0 
1 -116 -16 0 
1 -3 -126 0 
1 -94 -121 0 
1 122 66 0 
1 28 -26 0 
1 -75 91 0 
1 25 -61 0 
1 86 -76 0 
1 -61 36 0 
1 -116 104 0 
1 90 46 0 
1 37 52 0 
1 36 32 0 
1 55 -1 0 
1 -10 57 0 
